(set-info :smt-lib-version 2.6)
(set-logic QF_UFLRA)
(set-info :source |
MathSat group

|)
(set-info :category "random")
(set-info :status sat)
(declare-fun x0 () Real)
(declare-fun x1 () Real)
(declare-fun x2 () Real)
(declare-fun x3 () Real)
(declare-fun x4 () Real)
(declare-fun x5 () Real)
(declare-fun x6 () Real)
(declare-fun x7 () Real)
(declare-fun x8 () Real)
(declare-fun x9 () Real)
(declare-fun x10 () Real)
(declare-fun x11 () Real)
(declare-fun x12 () Real)
(declare-fun x13 () Real)
(declare-fun x14 () Real)
(declare-fun x15 () Real)
(declare-fun x16 () Real)
(declare-fun x17 () Real)
(declare-fun x18 () Real)
(declare-fun x19 () Real)
(declare-fun x20 () Real)
(declare-fun x21 () Real)
(declare-fun x22 () Real)
(declare-fun x23 () Real)
(declare-fun x24 () Real)
(declare-fun x25 () Real)
(declare-fun x26 () Real)
(declare-fun x27 () Real)
(declare-fun x28 () Real)
(declare-fun x29 () Real)
(declare-fun x30 () Real)
(declare-fun x31 () Real)
(declare-fun x32 () Real)
(declare-fun x33 () Real)
(declare-fun x34 () Real)
(declare-fun x35 () Real)
(declare-fun x36 () Real)
(declare-fun x37 () Real)
(declare-fun x38 () Real)
(declare-fun x39 () Real)
(declare-fun f0_1 (Real) Real)
(declare-fun f0_2 (Real Real) Real)
(declare-fun f0_3 (Real Real Real) Real)
(declare-fun f0_4 (Real Real Real Real) Real)
(declare-fun P0 () Bool)
(declare-fun P1 () Bool)
(declare-fun P2 () Bool)
(declare-fun P3 () Bool)
(declare-fun P4 () Bool)
(declare-fun P5 () Bool)
(declare-fun P6 () Bool)
(declare-fun P7 () Bool)
(declare-fun P8 () Bool)
(declare-fun P9 () Bool)
(declare-fun P10 () Bool)
(declare-fun P11 () Bool)
(declare-fun P12 () Bool)
(declare-fun P13 () Bool)
(declare-fun P14 () Bool)
(declare-fun P15 () Bool)
(declare-fun P16 () Bool)
(declare-fun P17 () Bool)
(declare-fun P18 () Bool)
(declare-fun P19 () Bool)
(declare-fun P20 () Bool)
(declare-fun P21 () Bool)
(declare-fun P22 () Bool)
(declare-fun P23 () Bool)
(declare-fun P24 () Bool)
(declare-fun P25 () Bool)
(declare-fun P26 () Bool)
(declare-fun P27 () Bool)
(declare-fun P28 () Bool)
(declare-fun P29 () Bool)
(declare-fun P30 () Bool)
(declare-fun P31 () Bool)
(declare-fun P32 () Bool)
(declare-fun P33 () Bool)
(declare-fun P34 () Bool)
(declare-fun P35 () Bool)
(declare-fun P36 () Bool)
(declare-fun P37 () Bool)
(declare-fun P38 () Bool)
(declare-fun P39 () Bool)
(assert (let ((?v_18 (<= (+ (- (* 36 x6) (* 12 x31)) (* 42 x8)) 10)) (?v_84 (* 8 x27))) (let ((?v_105 (= (- (+ ?v_84 (* 9 x20)) (* 56 x11)) 14)) (?v_88 (<= (- (- (* 30 x28) (* 40 x11)) (* 23 x22)) 21)) (?v_72 (< (- (- (* 9 x18) (* 26 x25)) (* 2 x29)) 5)) (?v_12 (* 57 x22)) (?v_54 (= (- (- (* 32 x36) (* 55 x24)) ?v_84) 0)) (?v_21 (< (- (+ (* 49 x20) (* 8 x39)) (* 33 x30)) 49)) (?v_27 (distinct (- (+ (* 54 x39) (* 2 x18)) (* 36 x22)) 11)) (?v_15 (<= (- (+ (* 56 x17) (* 38 x24)) (* 11 x26)) 35)) (?v_23 (< (- (+ (* 56 x10) (* 43 x11)) (* 36 x4)) 26)) (?v_53 (< (+ (- (* 44 x3) (* 31 x37)) (* 35 x27)) 39)) (?v_33 (f0_1 x39))) (let ((?v_37 (distinct (f0_2 x13 x25) ?v_33)) (?v_140 (= (f0_2 x28 x8) (f0_2 x25 x31))) (?v_106 (= x10 x13)) (?v_208 (distinct (f0_2 x17 x8) (f0_2 x39 x3))) (?v_78 (= (f0_2 x12 x12) (f0_2 x15 x30))) (?v_111 (distinct x7 x35)) (?v_3 (f0_1 x23))) (let ((?v_46 (distinct ?v_3 (f0_2 x11 x25))) (?v_60 (f0_1 x11))) (let ((?v_41 (= ?v_60 (f0_1 x17))) (?v_28 (= (f0_2 x27 x22) (f0_1 x34))) (?v_32 (distinct x11 (f0_2 x28 x18))) (?v_34 (= x11 x32)) (?v_51 (= (f0_2 x30 x14) (f0_2 x18 x3))) (?v_134 (distinct x23 (f0_1 x0))) (?v_153 (distinct x6 (f0_2 x26 x26))) (?v_1 (f0_1 x5))) (let ((?v_6 (distinct ?v_1 ?v_3)) (?v_79 (distinct x20 (f0_1 x33))) (?v_43 (distinct (f0_1 x31) (f0_2 x4 x7))) (?v_129 (= x6 (f0_2 x22 x3))) (?v_66 (distinct x8 (f0_2 x20 x0))) (?v_76 (= x32 (f0_2 x20 x2))) (?v_133 (distinct (f0_2 x36 x0) (f0_2 x9 x31))) (?v_35 (= (f0_2 x9 x29) x28)) (?v_42 (f0_2 x12 x1))) (let ((?v_115 (distinct x39 ?v_42)) (?v_67 (distinct (f0_2 x30 x39) x30)) (?v_38 (f0_1 x37))) (let ((?v_75 (= ?v_38 (f0_2 x2 x7))) (?v_68 (distinct x33 ?v_60)) (?v_186 (distinct ?v_33 (f0_1 x8))) (?v_91 (distinct (f0_2 x10 x9) x6)) (?v_101 (distinct (f0_2 x11 x10) ?v_38)) (?v_109 (distinct (f0_2 x7 x18) x38)) (?v_45 (= (f0_2 x9 x23) x3)) (?v_65 (f0_1 x7))) (let ((?v_17 (= (f0_2 x39 x4) ?v_65)) (?v_130 (= x22 (f0_1 x18))) (?v_107 (distinct ?v_1 (f0_1 x21))) (?v_160 (distinct x9 x12)) (?v_118 (distinct (f0_1 x26) ?v_65)) (?v_122 (distinct (f0_1 x25) (f0_2 x23 x11))) (?v_50 (distinct x5 x21)) (?v_81 (distinct ?v_42 (f0_2 x16 x7))) (?v_159 (distinct (f0_2 x32 x34) (f0_1 x12))) (?v_9 (not ?v_23)) (?v_10 (not P9)) (?v_39 (not P29))) (let ((?v_4 (not ?v_107)) (?v_7 (not P25)) (?v_0 (not P12)) (?v_47 (not ?v_50)) (?v_113 (not P19)) (?v_2 (not ?v_88)) (?v_22 (not ?v_6)) (?v_25 (not ?v_15)) (?v_44 (not ?v_129)) (?v_162 (not P17)) (?v_62 (not ?v_72)) (?v_59 (not ?v_53)) (?v_24 (not ?v_91)) (?v_93 (not ?v_34)) (?v_99 (not ?v_46)) (?v_77 (not P4)) (?v_11 (not P8)) (?v_147 (not ?v_45)) (?v_74 (not P35)) (?v_30 (not P15)) (?v_116 (not P28)) (?v_195 (not ?v_153)) (?v_19 (not P26)) (?v_180 (not ?v_27)) (?v_152 (not P6)) (?v_173 (not ?v_17)) (?v_95 (not P18)) (?v_85 (not ?v_21)) (?v_164 (not P3)) (?v_55 (not ?v_186)) (?v_40 (not ?v_32)) (?v_174 (not P0)) (?v_128 (not ?v_37)) (?v_192 (not P32)) (?v_123 (not P24)) (?v_190 (not P10)) (?v_120 (not ?v_79)) (?v_52 (not P33)) (?v_94 (not ?v_41)) (?v_48 (not ?v_115)) (?v_87 (not ?v_43)) (?v_156 (not ?v_159)) (?v_80 (not ?v_51)) (?v_157 (not P37)) (?v_182 (not P34)) (?v_114 (not ?v_160)) (?v_188 (not ?v_118)) (?v_86 (not ?v_68)) (?v_155 (not ?v_109)) (?v_110 (not P13)) (?v_90 (not ?v_75)) (?v_199 (not ?v_76)) (?v_100 (not P11)) (?v_117 (not P36)) (?v_89 (not ?v_78)) (?v_127 (not ?v_133)) (?v_201 (not ?v_81)) (?v_102 (not ?v_105)) (?v_148 (not ?v_208)) (?v_125 (not P39)) (?v_108 (not ?v_67)) (?v_139 (not ?v_106)) (?v_112 (not ?v_111)) (?v_200 (not P14)) (?v_119 (not P16)) (?v_194 (not P21)) (?v_124 (not P27)) (?v_205 (or P27 ?v_28)) (?v_170 (not P31)) (?v_172 (not ?v_66)) (?v_178 (not ?v_54)) (?v_169 (not P22)) (?v_136 (not P5)) (?v_145 (not P7)) (?v_171 (not P20)) (?v_183 (not ?v_140)) (?v_158 (not ?v_134)) (?v_181 (not P23)) (?v_161 (not ?v_122)) (?v_202 (not P30)) (?v_189 (not P2)) (?v_193 (not ?v_101)) (?v_184 (not ?v_18)) (?v_204 (not ?v_28)) (?v_203 (not ?v_35)) (?v_207 (not ?v_130)) (?v_206 (not P1)) (?v_138 (< (+ (* 20 x31) (* 39 x29) (* 54 x34)) 9))) (let ((?v_135 (not ?v_138)) (?v_151 (< (+ (* 27 x38) (* 22 x28) (* 57 x16)) 45))) (let ((?v_176 (not ?v_151)) (?v_63 (<= (- (+ (* 17 x20) (* 15 x26)) 0) (- 22))) (?v_70 (< (- (- (* (- 29) x12) (* 17 x31)) (* 47 x10)) (- 54))) (?v_29 (< (+ (- (* (- 7) x0) (* 4 x30)) (* 33 x2)) (- 37))) (?v_49 (<= (- (- (* (- 39) x13) (* 21 x19)) (* 14 x18)) (- 9)))) (let ((?v_92 (not ?v_49)) (?v_14 (<= (- (+ (* (- 26) x29) (* 32 x18)) (* 37 x29)) 37))) (let ((?v_98 (not ?v_14)) (?v_8 (<= (- (+ (* (- 54) x14) (* 18 x2)) (* 57 x32)) (- 11))) (?v_5 (<= (- (- (* 13 x18) (* 55 x8)) (* 57 x8)) (- 36))) (?v_96 (< (+ (* (- 29) x29) (* 3 x2) (* 20 x14)) (- 55)))) (let ((?v_16 (not ?v_96)) (?v_61 (<= (+ (* (- 36) x30) (* 21 x31) (* 49 x29)) 23))) (let ((?v_132 (not ?v_61)) (?v_121 (< (+ (* (- 57) x9) (* 10 x16) ?v_12) 19))) (let ((?v_20 (not ?v_121)) (?v_13 (<= (+ (- (* (- 57) x25) (* 50 x25)) (* 28 x7)) (- 9))) (?v_179 (not ?v_5)) (?v_57 (= (- (- (* (- 13) x14) (* 45 x35)) ?v_12) (- 18))) (?v_56 (< (- (- (* 39 x7) (* 15 x37)) (* 21 x1)) (- 57)))) (let ((?v_31 (not ?v_56)) (?v_26 (not ?v_13)) (?v_83 (< (+ (* 17 x21) (* 50 x13) x36) (- 51))) (?v_36 (= (+ (* (- 26) x35) (* 25 x21) (* 46 x37)) 58)) (?v_143 (< (+ (* 14 x35) (* 48 x27) (* 42 x1)) (- 44)))) (let ((?v_137 (not ?v_143)) (?v_73 (= (+ (- (* 34 x13) (* 27 x36)) (* 34 x8)) (- 27)))) (let ((?v_97 (not ?v_73)) (?v_82 (<= (- (+ (* (- 34) x21) (* 17 x24)) (* 2 x13)) (- 45)))) (let ((?v_149 (not ?v_82)) (?v_69 (< (+ (* (- 19) x14) (* 40 x18) (* 43 x18)) 15)) (?v_71 (= (+ (- (* (- 12) x15) (* 56 x14)) (* 33 x39)) (- 46))) (?v_64 (not ?v_36)) (?v_104 (< (- (- (* (- 33) x22) (* 22 x13)) (* 18 x37)) (- 33))) (?v_144 (<= (- (+ (* (- 46) x32) (* 51 x27)) (* 22 x4)) 4)) (?v_168 (<= (+ (* (- 30) x5) (* 24 x19) (* 43 x13)) (- 14)))) (let ((?v_58 (not ?v_168)) (?v_131 (not ?v_57)) (?v_177 (not ?v_63)) (?v_150 (not ?v_71)) (?v_175 (< (+ (- (* 56 x34) (* 45 x23)) (* 4 x34)) (- 44))) (?v_196 (not ?v_83)) (?v_142 (<= (+ (- (* (- 52) x11) (* 9 x2)) (* 42 x18)) 35)) (?v_103 (not ?v_70)) (?v_141 (<= (- (+ (* 45 x3) (* 49 x33)) (* 2 x34)) (- 19))) (?v_185 (not ?v_104)) (?v_126 (< (- (+ (* (- 51) x0) (* 18 x21)) (* 56 x36)) 24)) (?v_146 (distinct (+ (- (* (- 26) x25) (* 35 x1)) (* 53 x38)) (- 26)))) (let ((?v_197 (not ?v_146)) (?v_166 (not ?v_126)) (?v_165 (not ?v_8)) (?v_154 (not ?v_141)) (?v_163 (not ?v_142)) (?v_167 (not ?v_144)) (?v_191 (not ?v_69)) (?v_187 (not ?v_175)) (?v_198 (not ?v_29))) (and (and (and (and (and (and (and (and (and (and (and (and (and (and (and (and (and (and (and (and (and (and (and (and (and (and (and (and (and (and (and (and (and (and (and (and (and (and (and (and (and (and (and (and (and (and (and (and (and (and (and (and (and (and (and (and (and (and (and (and (and (and (and (and (and (and (and (and (and (and (and (and (and (and (and (and (and (and (and (and (and (and (and (and (and (and (and (and (and (and (and (and (and (and (and (and (and (and (and (and (and (and (and (and (and (and (and (and (and (and (and (and (and (and (and (and (and (and (and (and (and (and (and (and (and (and (and (and (and (and (and (and (and (and (and (and (and (and (and (and (and (and (and (and (and (and (and (and (and (and (and (and (and (and (and (and (and (and (and (and (and (and (and (and (and (and (and (and (and (and (and (and (and (and (and (and (and (and (and (and (and (and (and (and (and (and (and (and (and (and (and (and (and (and (and (and (and (and (and (and (and (and (and (and (and (and (and (and (and (and (and (and (and (and (and (and (and (and (and (and (and (and (and (and (and (and (and (and (and (and (and (and (and (and (and (and (and (and (and (and (and (and (and (and (and (and (and (and (and (and (and (and (and (and (and (and (and (and (and (and (and (and (and (and (and (and (and (and (and (and (and (and (and (and (and (and (and (and (and (and (and (and (and (and (and (and (and (and (and (and (and (and (and (and (and (and (and (and (and (and (and (and (and (and (and (and (and (and (and (and (and (and (and (and (and (and (and (and (and (and (and (and (and (and (and (and (and (and (and (and (and (and (and (and (and (and (and (and (and (and (and (and (and (and (and (and (and (and (and (and (and (and (and (and (and (and (and (and (and (and (and (and (and (and (and (and (and (and (and (and (and (and (and (and (and (and (and (and (and (and (and (and (and (and (and (and (and (and (and (and (and (and (and (and (and (and (and (and (and (and (and (and (and (and (and (and (and (and (and (and (and (and (and (and (and (and (and (and (and (and (and (and (and (and (and (and (and (and (and (and (and (and (and (and (and (and (and (and (and (and (and (and (and (and (and (and (and (and (and (and (and (and (and (and (and (and (and (and (and (and (and (and (and (and (and (and (and (and (and (and (and (and (and (and (and (and (and (and (and (or (or ?v_9 ?v_63) ?v_10) (or (or P32 ?v_51) ?v_66)) (or (or ?v_70 P25) ?v_29)) (or (or ?v_92 P2) ?v_98)) (or (or ?v_39 ?v_28) ?v_75)) (or (or ?v_8 ?v_32) P31)) (or (or P4 ?v_4) P19)) (or (or ?v_7 ?v_0) ?v_47)) (or (or ?v_113 P22) ?v_0)) (or (or ?v_2 P9) P0)) (or (or ?v_22 ?v_5) ?v_140)) (or (or ?v_17 P10) ?v_25)) (or (or ?v_16 ?v_2) ?v_44)) (or (or P0 ?v_162) ?v_62)) (or (or ?v_59 ?v_24) ?v_93)) (or (or P18 ?v_132) P24)) (or (or ?v_43 ?v_41) ?v_0)) (or (or ?v_99 ?v_4) P10)) (or (or ?v_76 ?v_20) ?v_77)) (or (or ?v_13 ?v_179) ?v_18)) (or (or P22 ?v_2) ?v_11)) (or (or ?v_147 ?v_74) P1)) (or (or ?v_6 ?v_30) ?v_54)) (or (or ?v_116 ?v_7) ?v_8)) (or (or ?v_9 ?v_10) ?v_11)) (or (or ?v_57 P36) P23)) (or (or P32 ?v_31) ?v_195)) (or (or ?v_35 ?v_26) P36)) (or (or P16 P38) ?v_14)) (or (or P8 ?v_19) ?v_180)) (or (or ?v_15 ?v_152) P23)) (or (or ?v_16 ?v_173) ?v_18)) (or (or ?v_10 ?v_83) ?v_19)) (or (or ?v_20 ?v_95) ?v_85)) (or (or ?v_21 P32) ?v_22)) (or (or ?v_23 ?v_36) ?v_122)) (or (or ?v_24 ?v_137) P11)) (or (or ?v_25 ?v_164) P10)) (or (or ?v_26 ?v_27) ?v_28)) (or (or ?v_97 ?v_29) ?v_30)) (or (or ?v_149 ?v_55) ?v_31)) (or (or ?v_40 ?v_2) ?v_174)) (or (or P29 ?v_67) ?v_78)) (or (or ?v_6 P33) ?v_69)) (or (or ?v_18 ?v_128) ?v_34)) (or (or ?v_192 ?v_30) ?v_35)) (or (or ?v_123 P12) ?v_190)) (or (or ?v_35 ?v_81) ?v_36)) (or (or ?v_34 ?v_34) P19)) (or (or ?v_37 ?v_14) ?v_4)) (or (or ?v_71 P10) ?v_101)) (or (or P3 ?v_39) ?v_120)) (or (or ?v_16 ?v_64) ?v_40)) (or (or ?v_52 P32) ?v_104)) (or (or ?v_94 ?v_134) ?v_48)) (or (or P39 ?v_87) ?v_15)) (or (or ?v_9 ?v_44) ?v_45)) (or (or ?v_46 ?v_47) ?v_48)) (or (or P18 ?v_156) ?v_23)) (or (or ?v_144 ?v_49) ?v_50)) (or (or ?v_80 P29) ?v_52)) (or (or ?v_53 ?v_157) ?v_182)) (or (or ?v_54 ?v_55) ?v_58)) (or (or ?v_26 ?v_56) P0)) (or (or ?v_131 ?v_35) ?v_58)) (or (or ?v_59 ?v_68) ?v_61)) (or (or ?v_15 ?v_0) ?v_49)) (or (or P26 ?v_114) ?v_62)) (or (or ?v_177 ?v_64) ?v_188)) (or (or ?v_37 ?v_66) ?v_67)) (or (or ?v_53 ?v_86) ?v_69)) (or (or P10 ?v_70) ?v_155)) (or (or ?v_4 ?v_39) ?v_36)) (or (or P32 P13) ?v_150)) (or (or ?v_72 ?v_73) P4)) (or (or ?v_11 ?v_55) ?v_110)) (or (or ?v_40 ?v_29) ?v_175)) (or (or ?v_74 ?v_46) ?v_27)) (or (or ?v_90 ?v_40) ?v_59)) (or (or ?v_199 ?v_100) ?v_130)) (or (or ?v_117 ?v_10) ?v_77)) (or (or ?v_11 ?v_50) ?v_29)) (or (or ?v_89 ?v_127) ?v_79)) (or (or ?v_80 ?v_72) ?v_201)) (or (or ?v_22 ?v_82) ?v_32)) (or (or ?v_196 P3) ?v_102)) (or (or ?v_142 ?v_85) ?v_86)) (or (or ?v_87 P25) ?v_21)) (or (or ?v_148 P23) ?v_88)) (or (or ?v_89 ?v_80) ?v_125)) (or (or ?v_90 ?v_23) ?v_61)) (or (or ?v_71 ?v_82) ?v_108)) (or (or ?v_74 ?v_45) ?v_139)) (or (or ?v_91 ?v_92) ?v_103)) (or (or ?v_59 P34) ?v_69)) (or (or P3 P16) ?v_93)) (or (or ?v_141 ?v_6) P31)) (or (or ?v_94 P35) ?v_95)) (or (or P23 ?v_112) ?v_49)) (or (or ?v_62 ?v_96) ?v_21)) (or (or ?v_85 ?v_97) ?v_135)) (or (or ?v_98 P2) ?v_99)) (or (or ?v_26 ?v_100) P19)) (or (or ?v_101 ?v_47) ?v_102)) (or (or ?v_21 ?v_103) ?v_47)) (or (or P10 ?v_185) ?v_19)) (or (or ?v_105 ?v_29) P39)) (or (or ?v_105 ?v_106) ?v_76)) (or (or P38 ?v_107) ?v_25)) (or (or ?v_200 ?v_108) ?v_126)) (or (or ?v_119 ?v_25) ?v_10)) (or (or ?v_76 ?v_109) ?v_110)) (or (or ?v_111 ?v_27) ?v_106)) (or (or ?v_59 P32) ?v_194)) (or (or ?v_112 ?v_124) ?v_22)) (or (or P27 ?v_6) P9)) (or (or ?v_113 ?v_44) ?v_28)) (or (or ?v_29 P28) ?v_46)) (or (or ?v_43 P34) ?v_114)) (or (or ?v_47 ?v_115) ?v_111)) (or (or P22 ?v_116) ?v_111)) (or (or ?v_117 ?v_118) ?v_197)) (or (or ?v_48 ?v_92) ?v_119)) (or ?v_205 ?v_120)) (or (or P3 ?v_0) P21)) (or (or ?v_81 ?v_170) ?v_51)) (or (or ?v_105 ?v_121) ?v_32)) (or (or ?v_122 ?v_123) P9)) (or (or P11 ?v_22) ?v_124)) (or (or ?v_125 ?v_166) ?v_20)) (or (or ?v_127 ?v_172) ?v_14)) (or (or P37 ?v_48) P19)) (or (or ?v_178 ?v_128) P32)) (or (or ?v_129 P27) ?v_55)) (or (or ?v_36 P12) ?v_49)) (or (or ?v_61 ?v_75) ?v_108)) (or (or ?v_165 P15) P17)) (or (or ?v_52 ?v_19) ?v_69)) (or (or ?v_130 ?v_131) ?v_97)) (or (or ?v_132 ?v_35) P6)) (or (or ?v_169 ?v_101) ?v_81)) (or (or ?v_58 ?v_133) ?v_134)) (or (or ?v_135 ?v_136) ?v_133)) (or (or ?v_136 ?v_137) ?v_151)) (or (or ?v_92 ?v_138) ?v_107)) (or (or ?v_145 ?v_139) ?v_68)) (or (or P23 ?v_171) P25)) (or (or ?v_68 ?v_27) P35)) (or (or ?v_53 ?v_140) ?v_88)) (or (or ?v_154 ?v_94) P11)) (or (or ?v_163 ?v_40) ?v_74)) (or (or ?v_58 ?v_119) ?v_72)) (or (or ?v_143 ?v_144) ?v_126)) (or (or P23 ?v_133) ?v_34)) (or (or ?v_14 ?v_122) ?v_145)) (or (or ?v_103 ?v_183) P2)) (or (or ?v_20 ?v_146) ?v_158)) (or (or ?v_20 ?v_147) ?v_148)) (or (or ?v_181 ?v_97) ?v_79)) (or (or ?v_149 ?v_110) ?v_72)) (or (or ?v_150 ?v_79) ?v_161)) (or (or ?v_85 ?v_2) ?v_73)) (or (or ?v_135 ?v_167) ?v_108)) (or (or ?v_32 ?v_151) P19)) (or (or ?v_30 ?v_152) ?v_153)) (or (or P29 ?v_19) ?v_127)) (or (or ?v_148 ?v_123) P27)) (or (or P28 ?v_131) ?v_154)) (or (or ?v_28 ?v_155) ?v_102)) (or (or ?v_156 ?v_73) ?v_149)) (or (or ?v_36 ?v_141) P0)) (or (or ?v_87 ?v_202) ?v_40)) (or (or ?v_24 ?v_157) ?v_6)) (or (or P7 ?v_41) P18)) (or (or ?v_110 ?v_158) ?v_159)) (or (or ?v_56 ?v_158) ?v_144)) (or (or ?v_88 ?v_6) ?v_160)) (or (or ?v_146 ?v_54) ?v_80)) (or (or ?v_94 P12) ?v_77)) (or (or ?v_161 P39) ?v_162)) (or (or ?v_153 ?v_43) ?v_97)) (or (or ?v_68 ?v_163) ?v_97)) (or (or ?v_164 ?v_115) ?v_133)) (or (or P15 ?v_130) ?v_165)) (or (or ?v_189 ?v_68) ?v_126)) (or (or ?v_162 ?v_87) ?v_41)) (or (or ?v_32 ?v_39) ?v_107)) (or (or ?v_76 ?v_80) P23)) (or (or ?v_19 ?v_166) ?v_167)) (or (or ?v_43 ?v_147) ?v_117)) (or (or P37 ?v_125) ?v_144)) (or (or ?v_47 ?v_108) ?v_176)) (or (or ?v_92 ?v_168) ?v_115)) (or (or ?v_91 ?v_169) ?v_170)) (or (or ?v_70 ?v_164) P14)) (or (or ?v_94 ?v_171) P16)) (or (or ?v_163 ?v_49) ?v_150)) (or (or ?v_172 ?v_173) ?v_191)) (or (or ?v_138 P11) P24)) (or (or ?v_135 ?v_92) P2)) (or (or ?v_174 ?v_68) P14)) (or (or ?v_136 ?v_10) P0)) (or (or ?v_87 ?v_175) ?v_152)) (or (or ?v_127 ?v_76) ?v_176)) (or (or ?v_128 ?v_112) ?v_177)) (or (or ?v_150 ?v_105) P32)) (or (or ?v_145 ?v_77) ?v_130)) (or (or ?v_167 ?v_177) P26)) (or (or ?v_95 ?v_13) ?v_30)) (or (or ?v_83 ?v_9) ?v_178)) (or (or ?v_153 ?v_193) ?v_44)) (or (or ?v_179 ?v_173) ?v_99)) (or (or ?v_112 ?v_143) ?v_87)) (or (or ?v_57 ?v_68) ?v_34)) (or (or P24 ?v_169) ?v_184)) (or (or ?v_58 ?v_173) ?v_136)) (or (or ?v_134 ?v_44) ?v_187)) (or (or ?v_180 ?v_131) ?v_61)) (or (or ?v_93 ?v_2) ?v_75)) (or (or P18 ?v_55) ?v_105)) (or (or ?v_176 ?v_90) P39)) (or (or ?v_128 ?v_176) ?v_181)) (or (or ?v_182 ?v_43) ?v_112)) (or (or ?v_92 ?v_57) ?v_26)) (or (or ?v_181 ?v_168) ?v_150)) (or (or ?v_57 ?v_118) ?v_81)) (or (or ?v_183 ?v_184) ?v_138)) (or (or ?v_185 ?v_159) ?v_122)) (or (or ?v_40 ?v_153) ?v_30)) (or (or ?v_154 P35) ?v_134)) (or (or ?v_20 ?v_179) ?v_130)) (or (or P1 P15) ?v_58)) (or (or ?v_154 ?v_129) ?v_186)) (or (or P23 P3) ?v_177)) (or (or ?v_166 ?v_155) ?v_14)) (or (or P36 ?v_74) ?v_91)) (or (or ?v_28 ?v_187) ?v_59)) (or (or ?v_188 ?v_46) ?v_156)) (or (or ?v_144 ?v_109) ?v_189)) (or (or ?v_198 ?v_72) P22)) (or (or ?v_16 ?v_93) P12)) (or (or ?v_22 ?v_88) ?v_103)) (or (or ?v_77 ?v_68) ?v_58)) (or (or ?v_97 ?v_77) ?v_135)) (or (or P4 ?v_140) ?v_107)) (or (or ?v_52 ?v_180) ?v_10)) (or (or ?v_126 ?v_163) ?v_99)) (or (or P37 ?v_68) ?v_124)) (or (or ?v_78 P4) ?v_190)) (or (or ?v_34 ?v_191) ?v_22)) (or (or P4 ?v_129) ?v_94)) (or (or P10 ?v_78) ?v_192)) (or (or ?v_100 ?v_15) ?v_6)) (or (or ?v_193 ?v_180) ?v_155)) (or (or ?v_149 P5) ?v_178)) (or (or P2 ?v_62) ?v_69)) (or (or ?v_170 ?v_191) ?v_127)) (or (or P6 ?v_11) ?v_53)) (or (or ?v_10 ?v_30) ?v_165)) (or (or ?v_26 P35) ?v_62)) (or (or P1 ?v_191) P39)) (or (or ?v_92 ?v_180) ?v_58)) (or (or ?v_186 ?v_142) P11)) (or (or P1 ?v_18) ?v_194)) (or (or ?v_103 ?v_177) ?v_24)) (or (or ?v_146 P6) ?v_80)) (or (or ?v_163 ?v_16) ?v_189)) (or (or ?v_162 ?v_43) ?v_137)) (or (or ?v_118 ?v_110) P17)) (or (or ?v_50 ?v_72) ?v_40)) (or (or ?v_31 P24) ?v_22)) (or (or ?v_43 ?v_204) ?v_130)) (or (or ?v_190 ?v_176) ?v_34)) (or (or ?v_67 P32) P37)) (or (or ?v_134 ?v_162) ?v_41)) (or (or P23 ?v_135) ?v_56)) (or (or ?v_170 ?v_129) P28)) (or (or ?v_96 ?v_194) P22)) (or (or ?v_28 ?v_4) ?v_88)) (or (or ?v_195 ?v_122) ?v_5)) (or (or P3 ?v_107) P34)) (or (or P14 ?v_104) P38)) (or (or ?v_138 ?v_69) ?v_13)) (or (or ?v_156 ?v_35) ?v_88)) (or (or ?v_15 ?v_196) ?v_136)) (or (or ?v_89 ?v_146) ?v_111)) (or (or ?v_86 ?v_115) P31)) (or (or ?v_5 ?v_126) ?v_91)) (or (or ?v_14 ?v_124) ?v_104)) (or (or ?v_177 ?v_72) ?v_152)) (or (or ?v_155 ?v_14) ?v_163)) (or (or ?v_13 ?v_80) ?v_96)) (or (or ?v_51 ?v_192) P26)) (or (or ?v_96 ?v_4) P39)) (or (or ?v_29 P26) ?v_146)) (or (or ?v_0 ?v_24) ?v_172)) (or (or ?v_160 ?v_58) ?v_90)) (or (or P23 ?v_197) ?v_106)) (or (or P12 ?v_134) ?v_126)) (or (or ?v_139 ?v_85) ?v_17)) (or (or ?v_107 ?v_52) ?v_91)) (or (or ?v_98 ?v_159) ?v_50)) (or (or ?v_180 ?v_64) ?v_143)) (or (or ?v_138 ?v_196) P4)) (or (or ?v_114 ?v_137) ?v_113)) (or (or ?v_191 ?v_185) ?v_137)) (or (or ?v_120 P18) ?v_189)) (or (or ?v_59 ?v_173) ?v_154)) (or (or ?v_101 ?v_4) ?v_8)) (or (or ?v_128 ?v_158) ?v_89)) (or (or ?v_102 ?v_4) ?v_198)) (or (or ?v_55 P29) ?v_181)) (or (or ?v_14 ?v_170) ?v_26)) (or (or ?v_203 ?v_143) ?v_186)) (or (or ?v_97 ?v_144) ?v_100)) (or (or P15 ?v_128) ?v_82)) (or (or ?v_37 P21) ?v_58)) (or (or P35 ?v_92) ?v_113)) (or (or ?v_93 P20) ?v_138)) (or (or ?v_178 ?v_138) ?v_141)) (or (or ?v_172 ?v_184) P18)) (or (or ?v_189 ?v_101) ?v_80)) (or (or ?v_145 ?v_70) ?v_174)) (or (or ?v_26 ?v_29) ?v_136)) (or (or ?v_99 P18) ?v_199)) (or (or P36 ?v_159) ?v_134)) (or (or ?v_193 ?v_185) ?v_195)) (or (or P34 ?v_56) ?v_155)) (or (or P3 ?v_172) ?v_125)) (or (or ?v_75 P32) ?v_132)) (or (or ?v_20 P12) ?v_18)) (or (or ?v_135 ?v_56) ?v_81)) (or (or P3 ?v_5) ?v_34)) (or (or ?v_150 ?v_101) ?v_7)) (or (or ?v_4 ?v_53) ?v_25)) (or (or ?v_148 ?v_154) ?v_55)) (or (or P29 ?v_55) ?v_207)) (or (or ?v_117 ?v_132) ?v_135)) (or (or ?v_72 ?v_46) ?v_189)) (or (or ?v_137 ?v_93) ?v_138)) (or (or ?v_46 ?v_11) ?v_116)) (or (or ?v_141 ?v_128) P31)) (or (or ?v_41 ?v_61) (not P38))) (or (or ?v_200 ?v_45) ?v_22)) (or (or ?v_18 ?v_15) P9)) (or (or ?v_40 P35) ?v_151)) (or (or ?v_185 ?v_201) ?v_152)) (or (or ?v_202 ?v_45) ?v_140)) (or (or ?v_47 P1) ?v_70)) (or (or ?v_2 ?v_159) ?v_199)) (or (or ?v_133 ?v_95) ?v_171)) (or (or ?v_86 ?v_153) ?v_56)) (or (or ?v_119 ?v_156) ?v_139)) (or (or ?v_104 ?v_175) ?v_132)) (or (or ?v_4 P30) P2)) (or (or ?v_39 ?v_203) ?v_50)) (or (or ?v_78 ?v_51) ?v_116)) (or (or P38 ?v_79) ?v_0)) (or (or ?v_89 ?v_20) ?v_164)) (or (or ?v_144 ?v_90) ?v_123)) (or (or ?v_196 P20) P0)) (or (or ?v_162 P33) ?v_27)) (or (or ?v_202 ?v_20) ?v_102)) (or (or ?v_53 ?v_169) ?v_19)) (or (or ?v_72 P9) P12)) (or (or ?v_43 ?v_9) P33)) (or (or ?v_201 ?v_103) ?v_139)) (or (or ?v_91 ?v_103) ?v_37)) (or (or ?v_8 ?v_203) ?v_17)) (or (or ?v_186 ?v_175) ?v_73)) (or (or ?v_2 ?v_117) ?v_68)) (or (or ?v_19 ?v_58) ?v_119)) (or (or ?v_17 ?v_75) ?v_152)) (or (or ?v_31 ?v_183) ?v_35)) (or (or ?v_54 ?v_18) ?v_30)) (or (or ?v_68 ?v_179) ?v_88)) (or (or ?v_50 ?v_176) ?v_11)) (or (or ?v_102 ?v_151) ?v_17)) (or (or ?v_122 ?v_34) P24)) (or (or P3 ?v_37) ?v_188)) (or (or ?v_46 ?v_106) P5)) (or (or ?v_144 ?v_0) ?v_136)) (or (or ?v_28 ?v_61) ?v_206)) (or (or ?v_149 ?v_73) ?v_137)) (or (or ?v_64 P1) ?v_0)) (or (or ?v_112 P15) ?v_126)) (or (or ?v_143 ?v_93) ?v_123)) (or (or ?v_81 P6) ?v_19)) (or (or ?v_119 ?v_30) ?v_110)) (or (or ?v_202 ?v_98) P3)) (or (or P29 ?v_21) ?v_196)) (or (or ?v_178 ?v_196) ?v_30)) (or (or ?v_55 P27) P9)) (or (or ?v_76 P35) ?v_119)) (or (or ?v_182 ?v_94) ?v_57)) (or (or ?v_202 ?v_28) ?v_76)) (or (or ?v_71 ?v_72) ?v_144)) (or (or ?v_154 ?v_54) P21)) (or (or ?v_47 ?v_186) ?v_176)) (or (or ?v_131 P25) ?v_151)) (or (or ?v_89 ?v_18) P4)) (or (or ?v_35 ?v_35) ?v_50)) (or (or P25 ?v_172) ?v_76)) (or (or ?v_151 ?v_140) ?v_68)) (or (or P39 ?v_97) ?v_14)) (or (or ?v_30 ?v_39) P3)) (or (or ?v_49 ?v_141) ?v_52)) (or (or ?v_151 P31) ?v_13)) (or (or ?v_126 ?v_166) ?v_53)) (or (or ?v_56 ?v_50) ?v_121)) (or (or ?v_143 ?v_74) P14)) (or (or ?v_17 ?v_48) ?v_66)) (or (or ?v_37 ?v_181) ?v_0)) (or (or ?v_143 ?v_101) P10)) (or (or P37 ?v_119) ?v_55)) (or (or ?v_195 ?v_113) P6)) (or (or ?v_9 ?v_104) ?v_121)) (or (or P12 ?v_95) ?v_5)) (or (or ?v_112 ?v_27) ?v_80)) (or (or ?v_136 ?v_135) ?v_130)) (or (or ?v_173 ?v_80) P36)) (or (or ?v_150 ?v_47) ?v_8)) (or (or ?v_47 ?v_32) ?v_63)) (or (or P36 ?v_142) ?v_130)) (or (or P3 P25) ?v_103)) (or (or ?v_105 ?v_54) ?v_19)) (or (or ?v_83 ?v_151) ?v_50)) (or (or ?v_106 ?v_120) ?v_74)) (or (or ?v_204 ?v_180) ?v_187)) (or (or ?v_192 ?v_125) ?v_157)) (or (or ?v_29 ?v_194) ?v_170)) (or (or P6 ?v_74) ?v_50)) (or (or ?v_110 P21) ?v_19)) (or (or ?v_198 ?v_32) ?v_166)) (or (or P10 ?v_170) P4)) (or ?v_205 ?v_159)) (or (or ?v_128 ?v_132) P25)) (or (or P30 ?v_118) ?v_39)) (or (or ?v_10 ?v_204) ?v_188)) (or (or ?v_106 ?v_74) ?v_165)) (or (or ?v_124 ?v_195) P8)) (or (or ?v_206 ?v_150) ?v_147)) (or (or ?v_63 ?v_51) ?v_172)) (or (or ?v_188 ?v_5) ?v_83)) (or (or ?v_35 ?v_30) ?v_191)) (or (or ?v_112 ?v_118) ?v_153)) (or (or ?v_202 ?v_81) P3)) (or (or P36 ?v_71) ?v_73)) (or (or ?v_123 ?v_192) ?v_158)) (or (or ?v_203 ?v_30) ?v_187)) (or (or P38 P1) P23)) (or (or P36 ?v_151) ?v_88)) (or (or P14 ?v_109) ?v_56)) (or (or P11 P4) ?v_178)) (or (or P1 ?v_107) ?v_203)) (or (or P26 ?v_109) ?v_166)) (or (or ?v_166 P10) ?v_27)) (or (or ?v_64 ?v_169) ?v_192)) (or (or P29 ?v_171) ?v_207)) (or (or P5 ?v_119) ?v_201)) (or (or ?v_170 ?v_96) ?v_198)) (or (or ?v_5 ?v_16) ?v_58)) (or (or P7 ?v_136) ?v_17)) (or (or ?v_39 ?v_125) ?v_117)) (or (or P22 ?v_163) ?v_49)) (or (or ?v_28 ?v_201) ?v_64)) (or (or ?v_4 P29) ?v_54)) (or (or ?v_54 ?v_68) ?v_165)) (or (or ?v_87 ?v_120) ?v_180)) (or (or ?v_157 ?v_116) ?v_67)) (or (or ?v_22 ?v_146) ?v_78)) (or (or P5 P24) ?v_14)) (or (or ?v_39 ?v_21) ?v_95)) (or (or ?v_204 ?v_176) P29)) (or (or ?v_208 ?v_28) ?v_134)) (or (or ?v_127 ?v_86) ?v_195)) (or (or ?v_27 ?v_55) ?v_178)) (or (or ?v_170 ?v_156) ?v_4)) (or (or ?v_105 P2) P38)) (or (or ?v_77 P8) P31))))))))))))))))))))))))))
(check-sat)
(exit)
